77
2 55 76 
1 43 
1 77 
2 82 94 
2 61 7 
2 79 97 
2 34 90 
1 31 
2 118 70 
1 58 
2 46 109 
2 52 64 
1 85 
2 49 13 
1 73 
2 106 67 
1 19 
2 44 5 
3 88 75 92 
2 1 115 
2 112 100 
3 103 26 84 
1 25 
1 16 
2 28 20 
1 80 
1 37 
2 10 116 
1 12 
3 5 12 98 
1 63 
2 91 39 
1 69 
1 117 
1 27 
1 30 
3 9 99 72 
1 15 
3 108 29 87 
3 21 96 60 
2 22 3 
2 104 8 
1 66 
1 38 
1 11 
2 17 42 
1 89 
1 54 
1 48 
3 95 111 107 
1 120 
1 93 
1 65 
1 14 
1 53 
1 36 
3 110 47 41 
1 33 
3 81 32 6 
2 2 23 
1 102 
1 35 
1 80 
1 62 
1 114 
1 68 
3 45 83 71 
3 78 74 40 
1 119 
1 59 
1 4 
1 57 
2 24 11 
1 56 
1 105 
1 50 
1 101 
